p cnf 150 382
c ind 146 148 145 147 144 143 142 141 140 139 0
c ind 138 137 136 135 134 133 132 131 130 129 0
c ind 128 127 126 1 0
c ret 124 108 88 103 83 109 89 110 90 111 0
c ret 91 112 92 113 93 114 94 125 115 95 0
c ret 116 96 117 97 105 118 98 85 119 99 0
c ret 120 100 121 101 122 102 123 106 86 104 0
c ret 84 107 87 0
2 24 -82 0
2 -3 -82 -145 0
2 3 -82 145 0
-2 82 0
-2 -3 -24 145 0
-2 3 -24 -145 0
3 4 -23 0
3 -4 23 0
-3 -4 -23 0
-3 4 23 0
4 -101 -121 0
4 -5 -121 0
4 -5 -101 0
-4 5 101 0
-4 5 121 0
-4 101 121 0
5 -100 -120 0
5 -6 -120 0
5 -6 -100 0
-5 6 100 0
-5 6 120 0
-5 100 120 0
6 -99 -119 0
6 -7 -119 0
6 -7 -99 0
-6 7 99 0
-6 7 119 0
-6 99 119 0
7 -98 -118 0
7 -8 -118 0
7 -8 -98 0
-7 8 98 0
-7 8 118 0
-7 98 118 0
8 -97 -117 0
8 -9 -117 0
8 -9 -97 0
-8 9 97 0
-8 9 117 0
-8 97 117 0
9 -96 -116 0
9 -10 -116 0
9 -10 -96 0
-9 10 96 0
-9 10 116 0
-9 96 116 0
10 -95 -115 0
10 -11 -115 0
10 -11 -95 0
-10 11 95 0
-10 11 115 0
-10 95 115 0
11 -94 -114 0
11 -12 -114 0
11 -12 -94 0
-11 12 94 0
-11 12 114 0
-11 94 114 0
12 -93 -113 0
12 -13 -113 0
12 -13 -93 0
-12 13 93 0
-12 13 113 0
-12 93 113 0
13 -92 -112 0
13 -14 -112 0
13 -14 -92 0
-13 14 92 0
-13 14 112 0
-13 92 112 0
14 -91 -111 0
14 -15 -111 0
14 -15 -91 0
-14 15 91 0
-14 15 111 0
-14 91 111 0
15 -90 -110 0
15 -16 -110 0
15 -16 -90 0
-15 16 90 0
-15 16 110 0
-15 90 110 0
16 -89 -109 0
16 -17 -109 0
16 -17 -89 0
-16 17 89 0
-16 17 109 0
-16 89 109 0
17 -88 -108 0
17 -18 -108 0
17 -18 -88 0
-17 18 88 0
-17 18 108 0
-17 88 108 0
18 -87 -107 0
18 -19 -107 0
18 -19 -87 0
-18 19 87 0
-18 19 107 0
-18 87 107 0
19 -86 -106 0
19 -20 -106 0
19 -20 -86 0
-19 20 86 0
-19 20 106 0
-19 86 106 0
20 -85 -105 0
20 -21 -105 0
20 -21 -85 0
-20 21 85 0
-20 21 105 0
-20 85 105 0
21 -84 -104 0
21 -22 -104 0
21 -22 -84 0
-21 22 84 0
-21 22 104 0
-21 84 104 0
22 -83 -103 0
-22 83 0
-22 103 0
23 -102 -122 0
23 102 122 0
-23 102 -122 0
-23 -102 122 0
24 -25 -27 144 0
24 25 -27 -144 0
-24 27 0
-24 25 144 0
-24 -25 -144 0
-5 25 -26 0
5 25 26 0
5 -25 -26 0
-5 -25 26 0
26 101 -121 0
26 -101 121 0
-26 -101 -121 0
-26 101 121 0
27 -28 -30 143 0
27 28 -30 -143 0
-27 30 0
-27 28 143 0
-27 -28 -143 0
-6 28 -29 0
6 28 29 0
6 -28 -29 0
-6 -28 29 0
29 100 -120 0
29 -100 120 0
-29 -100 -120 0
-29 100 120 0
30 -31 -33 142 0
30 31 -33 -142 0
-30 33 0
-30 31 142 0
-30 -31 -142 0
-7 31 -32 0
7 31 32 0
7 -31 -32 0
-7 -31 32 0
32 99 -119 0
32 -99 119 0
-32 -99 -119 0
-32 99 119 0
33 -34 -36 141 0
33 34 -36 -141 0
-33 36 0
-33 34 141 0
-33 -34 -141 0
-8 34 -35 0
8 34 35 0
8 -34 -35 0
-8 -34 35 0
35 98 -118 0
35 -98 118 0
-35 -98 -118 0
-35 98 118 0
36 -37 -39 140 0
36 37 -39 -140 0
-36 39 0
-36 37 140 0
-36 -37 -140 0
-9 37 -38 0
9 37 38 0
9 -37 -38 0
-9 -37 38 0
38 97 -117 0
38 -97 117 0
-38 -97 -117 0
-38 97 117 0
39 -40 -42 139 0
39 40 -42 -139 0
-39 42 0
-39 40 139 0
-39 -40 -139 0
-10 40 -41 0
10 40 41 0
10 -40 -41 0
-10 -40 41 0
41 96 -116 0
41 -96 116 0
-41 -96 -116 0
-41 96 116 0
42 -43 -45 138 0
42 43 -45 -138 0
-42 45 0
-42 43 138 0
-42 -43 -138 0
-11 43 -44 0
11 43 44 0
11 -43 -44 0
-11 -43 44 0
44 95 -115 0
44 -95 115 0
-44 -95 -115 0
-44 95 115 0
45 -46 -48 137 0
45 46 -48 -137 0
-45 48 0
-45 46 137 0
-45 -46 -137 0
-12 46 -47 0
12 46 47 0
12 -46 -47 0
-12 -46 47 0
47 94 -114 0
47 -94 114 0
-47 -94 -114 0
-47 94 114 0
48 -49 -51 136 0
48 49 -51 -136 0
-48 51 0
-48 49 136 0
-48 -49 -136 0
-13 49 -50 0
13 49 50 0
13 -49 -50 0
-13 -49 50 0
50 93 -113 0
50 -93 113 0
-50 -93 -113 0
-50 93 113 0
51 -52 -54 135 0
51 52 -54 -135 0
-51 54 0
-51 52 135 0
-51 -52 -135 0
-14 52 -53 0
14 52 53 0
14 -52 -53 0
-14 -52 53 0
53 92 -112 0
53 -92 112 0
-53 -92 -112 0
-53 92 112 0
54 -55 -57 134 0
54 55 -57 -134 0
-54 57 0
-54 55 134 0
-54 -55 -134 0
-15 55 -56 0
15 55 56 0
15 -55 -56 0
-15 -55 56 0
56 91 -111 0
56 -91 111 0
-56 -91 -111 0
-56 91 111 0
57 -58 -60 133 0
57 58 -60 -133 0
-57 60 0
-57 58 133 0
-57 -58 -133 0
-16 58 -59 0
16 58 59 0
16 -58 -59 0
-16 -58 59 0
59 90 -110 0
59 -90 110 0
-59 -90 -110 0
-59 90 110 0
60 -61 -63 132 0
60 61 -63 -132 0
-60 63 0
-60 61 132 0
-60 -61 -132 0
-17 61 -62 0
17 61 62 0
17 -61 -62 0
-17 -61 62 0
62 89 -109 0
62 -89 109 0
-62 -89 -109 0
-62 89 109 0
63 -64 -66 131 0
63 64 -66 -131 0
-63 66 0
-63 64 131 0
-63 -64 -131 0
-18 64 -65 0
18 64 65 0
18 -64 -65 0
-18 -64 65 0
65 88 -108 0
65 -88 108 0
-65 -88 -108 0
-65 88 108 0
66 -67 -69 130 0
66 67 -69 -130 0
-66 69 0
-66 67 130 0
-66 -67 -130 0
-19 67 -68 0
19 67 68 0
19 -67 -68 0
-19 -67 68 0
68 87 -107 0
68 -87 107 0
-68 -87 -107 0
-68 87 107 0
69 -70 -72 -79 129 0
69 70 -72 -79 -129 0
-69 79 0
-69 70 129 0
-69 72 0
-69 -70 -129 0
-20 70 -71 0
20 70 71 0
20 -70 -71 0
-20 -70 71 0
71 86 -106 0
71 -86 106 0
-71 -86 -106 0
-71 86 106 0
72 -73 -75 127 0
72 73 -75 -127 0
-72 75 0
-72 73 127 0
-72 -73 -127 0
-22 73 -74 0
22 73 74 0
22 -73 -74 0
-22 -73 74 0
74 84 -104 0
74 -84 104 0
-74 -84 -104 0
-74 84 104 0
75 76 77 -78 126 0
75 -76 77 -78 -126 0
-75 -77 0
-75 -76 126 0
-75 78 0
-75 76 -126 0
76 83 -103 0
76 -83 103 0
-76 -83 -103 0
-76 83 103 0
77 -123 -124 0
-77 123 0
-77 124 0
78 -146 147 148 0
-78 146 0
-78 -148 0
-78 -147 0
79 80 -81 0
79 -80 81 0
-79 -80 -81 0
-79 80 81 0
80 85 -105 0
80 -85 105 0
-80 -85 -105 0
-80 85 105 0
-21 81 -128 0
21 81 128 0
-21 -81 128 0
21 -81 -128 0
82 124 125 0
-82 -124 0
-82 -125 0
1 2 0
-1 -2 0
149 0

